p edge 40 318
e 1 2
e 1 5
e 1 7
e 1 8
e 1 13
e 1 14
e 1 21
e 1 28
e 1 29
e 1 31
e 1 32
e 1 34
e 1 36
e 1 37
e 1 39
e 1 40
e 2 7
e 2 8
e 2 16
e 2 17
e 2 18
e 2 19
e 2 23
e 2 25
e 2 26
e 2 31
e 2 32
e 2 36
e 2 38
e 3 5
e 3 6
e 3 7
e 3 8
e 3 10
e 3 11
e 3 16
e 3 17
e 3 18
e 3 24
e 3 26
e 3 28
e 3 30
e 3 32
e 3 33
e 3 36
e 3 38
e 4 7
e 4 8
e 4 10
e 4 12
e 4 13
e 4 16
e 4 18
e 4 19
e 4 20
e 4 22
e 4 24
e 4 25
e 4 29
e 4 31
e 4 32
e 4 36
e 5 7
e 5 9
e 5 11
e 5 14
e 5 16
e 5 20
e 5 22
e 5 25
e 5 28
e 5 33
e 5 36
e 5 37
e 6 9
e 6 12
e 6 13
e 6 14
e 6 15
e 6 17
e 6 21
e 6 29
e 6 30
e 6 33
e 6 34
e 6 36
e 6 37
e 6 40
e 7 8
e 7 9
e 7 10
e 7 12
e 7 14
e 7 15
e 7 16
e 7 19
e 7 20
e 7 22
e 7 23
e 7 27
e 7 32
e 7 33
e 7 35
e 7 36
e 7 37
e 8 9
e 8 11
e 8 12
e 8 15
e 8 19
e 8 23
e 8 31
e 8 33
e 8 37
e 9 17
e 9 18
e 9 19
e 9 20
e 9 25
e 9 28
e 9 31
e 9 40
e 10 11
e 10 15
e 10 16
e 10 17
e 10 24
e 10 31
e 10 32
e 10 35
e 10 38
e 10 39
e 11 13
e 11 17
e 11 18
e 11 19
e 11 21
e 11 22
e 11 23
e 11 24
e 11 33
e 11 34
e 11 37
e 11 40
e 12 20
e 12 24
e 12 27
e 12 32
e 12 33
e 12 36
e 12 38
e 13 14
e 13 20
e 13 21
e 13 23
e 13 25
e 13 27
e 13 28
e 13 30
e 13 31
e 13 37
e 13 38
e 13 40
e 14 15
e 14 16
e 14 20
e 14 21
e 14 22
e 14 24
e 14 28
e 14 34
e 14 36
e 14 39
e 14 40
e 15 16
e 15 17
e 15 19
e 15 20
e 15 21
e 15 23
e 15 27
e 15 30
e 15 31
e 15 35
e 15 36
e 15 40
e 16 17
e 16 20
e 16 25
e 16 26
e 16 27
e 16 29
e 16 32
e 16 35
e 16 36
e 16 38
e 16 39
e 17 18
e 17 20
e 17 22
e 17 27
e 17 28
e 17 31
e 17 32
e 17 35
e 17 36
e 18 20
e 18 22
e 18 23
e 18 25
e 18 26
e 18 33
e 18 36
e 18 37
e 18 38
e 18 39
e 19 21
e 19 23
e 19 25
e 19 26
e 19 36
e 19 37
e 19 38
e 19 39
e 20 21
e 20 22
e 20 24
e 20 32
e 20 33
e 20 34
e 20 35
e 20 38
e 20 39
e 21 22
e 21 24
e 21 25
e 21 28
e 21 30
e 21 32
e 21 39
e 22 25
e 22 28
e 22 29
e 22 31
e 22 32
e 22 33
e 22 34
e 22 35
e 22 37
e 22 38
e 22 39
e 23 24
e 23 25
e 23 26
e 23 28
e 23 32
e 23 36
e 23 38
e 24 29
e 24 32
e 24 34
e 24 35
e 24 39
e 24 40
e 25 28
e 25 32
e 25 36
e 26 27
e 26 28
e 26 29
e 26 31
e 26 32
e 26 34
e 26 36
e 26 37
e 27 28
e 27 30
e 27 33
e 27 34
e 27 37
e 28 30
e 28 33
e 28 34
e 28 35
e 28 38
e 28 40
e 29 30
e 29 31
e 29 33
e 29 36
e 29 37
e 29 38
e 30 32
e 30 33
e 30 34
e 30 35
e 30 36
e 30 39
e 31 34
e 31 35
e 31 36
e 31 39
e 32 35
e 33 36
e 33 38
e 33 39
e 34 35
e 34 39
e 34 40
e 35 39
e 36 37
e 36 39
e 36 40
e 37 38
e 37 39
e 37 40
e 38 39
e 39 40